CPXPARAM_Read_DataCheck                          1
Found incumbent of value 0.000000 after 0.00 sec. (0.03 ticks)
Tried aggregator 1 time.
MIP Presolve modified 1 coefficients.
Reduced MIP has 216 rows, 1005 columns, and 5020 nonzeros.
Reduced MIP has 1005 binaries, 0 generals, 0 SOSs, and 0 indicators.
Presolve time = 0.00 sec. (2.16 ticks)
Probing time = 0.00 sec. (1.53 ticks)
Tried aggregator 1 time.
Reduced MIP has 216 rows, 1005 columns, and 5020 nonzeros.
Reduced MIP has 1005 binaries, 0 generals, 0 SOSs, and 0 indicators.
Presolve time = 0.00 sec. (2.55 ticks)
Probing time = 0.00 sec. (1.53 ticks)
Clique table members: 1931.
MIP emphasis: balance optimality and feasibility.
MIP search method: dynamic search.
Parallel mode: deterministic, using up to 4 threads.
Root relaxation solution time = 0.00 sec. (3.16 ticks)

        Nodes                                         Cuts/
   Node  Left     Objective  IInf  Best Integer    Best Bound    ItCnt     Gap

*     0+    0                            0.0000     6033.0000              --- 
      0     0     1558.5139     9        0.0000     1558.5139      306     --- 
      0     0     1346.3096    85        0.0000     Cuts: 154      491     --- 
*     0+    0                         1311.0000     1346.3096             2.69%
      0     0     1320.2623   147     1311.0000      Cuts: 36      547    0.71%
*     0+    0                         1317.0000     1320.2623             0.25%
      0     0        cutoff           1317.0000     1317.0000      547    0.00%
Elapsed time = 0.06 sec. (52.45 ticks, tree = 0.01 MB, solutions = 3)

Clique cuts applied:  158
Cover cuts applied:  5
Mixed integer rounding cuts applied:  4
Zero-half cuts applied:  4
Gomory fractional cuts applied:  2

Root node processing (before b&c):
  Real time             =    0.06 sec. (52.53 ticks)
Parallel b&c, 4 threads:
  Real time             =    0.00 sec. (0.00 ticks)
  Sync time (average)   =    0.00 sec.
  Wait time (average)   =    0.00 sec.
                          ------------
Total (root+branch&cut) =    0.06 sec. (52.53 ticks)
